% seed = 0

mint = 38;
% maxt = 256;

nActs = 20;
dur = [0,18,18,15,10,16,12,13,11,14,14,13,15,15,18,10,13,12,19,0];

nSkills = 8;
sreq = [| 0,0,0,0,0,0,0,0,
	| 0,1,0,1,2,1,0,0,
	| 2,1,0,0,1,1,0,0,
	| 1,2,0,0,1,1,0,0,
	| 1,0,0,0,0,1,3,0,
	| 1,1,1,0,1,0,0,0,
	| 2,0,1,0,0,0,1,0,
	| 0,1,0,0,1,1,0,1,
	| 2,0,0,0,1,0,1,0,
	| 0,2,1,0,1,0,0,0,
	| 2,0,0,0,0,0,1,0,
	| 1,0,0,0,1,0,1,0,
	| 1,0,1,1,0,0,0,0,
	| 0,1,0,0,1,0,1,0,
	| 3,0,0,0,0,0,0,0,
	| 0,0,1,1,2,0,0,1,
	| 2,1,0,0,0,0,1,1,
	| 3,0,1,0,1,0,0,0,
	| 3,0,0,1,0,0,1,0,
	| 0,0,0,0,0,0,0,0, |];

% SumOfsreq = 75;

nResources = 10;
mastery = [| false,true,false,true,true,true,true,true,
	| true,false,true,false,true,true,true,true,
	| true,true,false,true,true,true,true,false,
	| true,false,true,true,false,true,true,false,
	| false,true,true,false,true,true,true,false,
	| false,true,true,false,true,true,false,true,
	| true,true,true,true,false,false,true,false,
	| false,false,false,true,false,true,true,true,
	| false,true,false,false,true,true,false,true,
	| false,false,true,true,true,true,false,false, |];

nPrecs = 30;
pred = [1,1,1,1,1,1,1,1,1,1,2,3,4,5,6,7,7,7,8,9,10,11,12,13,14,15,16,17,18,19];
succ = [2,3,4,6,7,9,10,14,15,19,12,17,5,8,20,17,11,16,20,18,13,20,20,20,20,17,20,20,20,20];

nUnrels = 142;
unpred = [2,2,2,2,2,2,2,2,2,2,2,2,2,2,2,2,3,3,3,3,3,3,3,3,3,3,3,3,3,3,3,4,4,4,4,4,4,4,4,4,4,4,4,4,5,5,5,5,5,5,5,5,5,5,5,5,5,6,6,6,6,6,6,6,6,6,6,6,6,6,7,7,7,7,7,7,7,7,7,8,8,8,8,8,8,8,8,8,8,8,9,9,9,9,9,9,9,9,9,10,10,10,10,10,10,10,10,11,11,11,11,11,11,11,11,12,12,12,12,12,12,12,13,13,13,13,13,13,14,14,14,14,14,15,15,15,16,16,16,17,17,18];
unsucc = [3,4,5,6,7,8,9,10,11,13,14,15,16,17,18,19,4,5,6,7,8,9,10,11,12,13,14,15,16,18,19,6,7,9,10,11,12,13,14,15,16,17,18,19,6,7,9,10,11,12,13,14,15,16,17,18,19,7,8,9,10,11,12,13,14,15,16,17,18,19,8,9,10,12,13,14,15,18,19,9,10,11,12,13,14,15,16,17,18,19,10,11,12,13,14,15,16,17,19,11,12,14,15,16,17,18,19,12,13,14,15,16,17,18,19,13,14,15,16,17,18,19,14,15,16,17,18,19,15,16,17,18,19,16,18,19,17,18,19,18,19,19];

USEFUL_RES = [{},
	{1,2,3,4,5,6,7,8,9,10},
	{1,2,3,4,5,6,7,8,9,10},
	{1,2,3,4,5,6,7,8,9,10},
	{1,2,3,4,5,6,7,8,9,10},
	{1,2,3,4,5,6,7,9,10},
	{1,2,3,4,5,6,7,8,10},
	{1,2,3,4,5,6,7,8,9,10},
	{1,2,3,4,5,6,7,8,9,10},
	{1,2,3,4,5,6,7,9,10},
	{1,2,3,4,5,7,8},
	{1,2,3,4,5,6,7,8,9,10},
	{1,2,3,4,5,6,7,8,10},
	{1,2,3,4,5,6,7,8,9,10},
	{2,3,4,7},
	{1,2,3,4,5,6,7,8,9,10},
	{1,2,3,4,5,6,7,8,9},
	{1,2,3,4,5,6,7,9,10},
	{1,2,3,4,5,7,8,10},
	{}];

POTENTIAL_ACT = [{2,3,4,5,6,7,8,9,10,11,12,13,14,16,17,18,19},
	{2,3,4,5,6,7,8,9,10,11,12,13,14,15,16,17,18,19},
	{2,3,4,5,6,7,8,9,10,11,12,13,14,15,16,17,18,19},
	{2,3,4,5,6,7,8,9,10,11,12,13,14,15,16,17,18,19},
	{2,3,4,5,6,7,8,9,10,11,12,13,14,16,17,18,19},
	{2,3,4,5,6,7,8,9,10,12,13,14,16,17,18},
	{2,3,4,5,6,7,8,9,10,11,12,13,14,15,16,17,18,19},
	{2,3,4,5,7,8,9,11,12,13,14,16,17,19},
	{2,3,4,5,6,8,9,10,12,14,16,17,18},
	{2,3,4,5,6,7,8,9,10,12,13,14,16,18,19}];
